
n_res = 6;
rcap = [22, 24, 21, 23, 1509, 1605];
rtype = [1, 1, 1, 1, 2, 2];
n_tasks = 100;
modes =  [{1, 2, 3, 4, 5, 6}, {7, 8, 9, 10, 11, 12}, {13, 14, 15, 16, 17, 18}, {19, 20, 21, 22, 23, 24}, {25, 26, 27, 28, 29, 30}, {31, 32, 33, 34, 35, 36}, {37, 38, 39, 40, 41, 42}, {43, 44, 45, 46, 47, 48}, {49, 50, 51, 52, 53, 54}, {55, 56, 57, 58, 59, 60}, {61, 62, 63, 64, 65, 66}, {67, 68, 69, 70, 71, 72}, {73, 74, 75, 76, 77, 78}, {79, 80, 81, 82, 83, 84}, {85, 86, 87, 88, 89, 90}, {91, 92, 93, 94, 95, 96}, {97, 98, 99, 100, 101, 102}, {103, 104, 105, 106, 107, 108}, {109, 110, 111, 112, 113, 114}, {115, 116, 117, 118, 119, 120}, {121, 122, 123, 124, 125, 126}, {127, 128, 129, 130, 131, 132}, {133, 134, 135, 136, 137, 138}, {139, 140, 141, 142, 143, 144}, {145, 146, 147, 148, 149, 150}, {151, 152, 153, 154, 155, 156}, {157, 158, 159, 160, 161, 162}, {163, 164, 165, 166, 167, 168}, {169, 170, 171, 172, 173, 174}, {175, 176, 177, 178, 179, 180}, {181, 182, 183, 184, 185, 186}, {187, 188, 189, 190, 191, 192}, {193, 194, 195, 196, 197, 198}, {199, 200, 201, 202, 203, 204}, {205, 206, 207, 208, 209, 210}, {211, 212, 213, 214, 215, 216}, {217, 218, 219, 220, 221, 222}, {223, 224, 225, 226, 227, 228}, {229, 230, 231, 232, 233, 234}, {235, 236, 237, 238, 239, 240}, {241, 242, 243, 244, 245, 246}, {247, 248, 249, 250, 251, 252}, {253, 254, 255, 256, 257, 258}, {259, 260, 261, 262, 263, 264}, {265, 266, 267, 268, 269, 270}, {271, 272, 273, 274, 275, 276}, {277, 278, 279, 280, 281, 282}, {283, 284, 285, 286, 287, 288}, {289, 290, 291, 292, 293, 294}, {295, 296, 297, 298, 299, 300}, {301, 302, 303, 304, 305, 306}, {307, 308, 309, 310, 311, 312}, {313, 314, 315, 316, 317, 318}, {319, 320, 321, 322, 323, 324}, {325, 326, 327, 328, 329, 330}, {331, 332, 333, 334, 335, 336}, {337, 338, 339, 340, 341, 342}, {343, 344, 345, 346, 347, 348}, {349, 350, 351, 352, 353, 354}, {355, 356, 357, 358, 359, 360}, {361, 362, 363, 364, 365, 366}, {367, 368, 369, 370, 371, 372}, {373, 374, 375, 376, 377, 378}, {379, 380, 381, 382, 383, 384}, {385, 386, 387, 388, 389, 390}, {391, 392, 393, 394, 395, 396}, {397, 398, 399, 400, 401, 402}, {403, 404, 405, 406, 407, 408}, {409, 410, 411, 412, 413, 414}, {415, 416, 417, 418, 419, 420}, {421, 422, 423, 424, 425, 426}, {427, 428, 429, 430, 431, 432}, {433, 434, 435, 436, 437, 438}, {439, 440, 441, 442, 443, 444}, {445, 446, 447, 448, 449, 450}, {451, 452, 453, 454, 455, 456}, {457, 458, 459, 460, 461, 462}, {463, 464, 465, 466, 467, 468}, {469, 470, 471, 472, 473, 474}, {475, 476, 477, 478, 479, 480}, {481, 482, 483, 484, 485, 486}, {487, 488, 489, 490, 491, 492}, {493, 494, 495, 496, 497, 498}, {499, 500, 501, 502, 503, 504}, {505, 506, 507, 508, 509, 510}, {511, 512, 513, 514, 515, 516}, {517, 518, 519, 520, 521, 522}, {523, 524, 525, 526, 527, 528}, {529, 530, 531, 532, 533, 534}, {535, 536, 537, 538, 539, 540}, {541, 542, 543, 544, 545, 546}, {547, 548, 549, 550, 551, 552}, {553, 554, 555, 556, 557, 558}, {559, 560, 561, 562, 563, 564}, {565, 566, 567, 568, 569, 570}, {571, 572, 573, 574, 575, 576}, {577, 578, 579, 580, 581, 582}, {583, 584, 585, 586, 587, 588}, {589, 590, 591, 592, 593, 594}, {595, 596, 597, 598, 599, 600}];
succ =  [{28, 26, 21, 18, 17, 16, 12}, {28, 27, 18, 17, 16, 15, 12}, {27, 26, 21, 18, 16, 11}, {28, 27, 18, 17, 16, 12}, {27, 18, 14, 13, 11}, {27, 19, 18, 15, 14}, {29, 28, 27, 25, 14, 13}, {27, 25, 21, 19, 17}, {28, 21, 18, 16, 15}, {27, 17, 16, 15, 14}, {41, 29, 28, 23, 17}, {31, 29, 14}, {41, 23, 17}, {41, 38, 35, 23, 20}, {35, 31, 29, 23, 20}, {37, 35, 33, 32, 31, 30, 29, 24, 23}, {38, 35, 34, 31, 20}, {42, 34, 33, 32, 25}, {41, 31, 29, 28, 23}, {37, 33, 32, 30, 24}, {43, 42, 36, 35, 32, 31, 30}, {38, 37, 23}, {43, 42, 39, 36, 34}, {44, 43, 42, 39, 36}, {52, 41, 39, 38, 36}, {52, 48, 42, 33, 32}, {43, 42, 34, 30}, {52, 43, 42, 39, 36}, {40, 39, 34}, {40, 39}, {54, 50, 47, 40}, {54, 46, 39}, {43, 40}, {60, 54, 53, 51, 47, 44}, {60, 53, 51, 47, 45, 44}, {54, 48, 40}, {59, 49, 48, 47, 46, 45}, {51, 49, 45, 43}, {60, 53, 51, 50, 47, 45}, {59, 53, 49, 46, 45}, {59, 55, 51, 48, 46}, {64, 60, 59, 57, 53, 51, 45}, {70, 62, 60, 55, 54, 53, 47}, {67, 63, 62, 58, 57, 52, 49}, {81, 71, 70, 69, 67, 63, 62, 56, 55}, {81, 70, 67, 63, 60, 58, 57}, {81, 69, 67, 64, 61, 58, 57}, {70, 66, 64, 62, 61, 53}, {81, 71, 70, 69, 64, 61, 55}, {81, 71, 69, 67, 59, 55}, {81, 70, 67, 56}, {81, 73, 72, 69, 68, 61, 59}, {85, 81, 80, 71, 69, 65, 63}, {82, 81, 80, 79, 78, 75, 74, 72, 71, 66}, {82, 78, 74, 73, 68, 66, 65}, {68, 66, 65, 61}, {80, 79, 78, 74, 73, 66, 65}, {80, 78, 72, 71, 68, 66}, {87, 84, 82, 80, 79, 76, 75, 74, 70}, {100, 82, 80, 75, 74, 72, 69}, {100, 99, 87, 85, 82, 79, 78, 76, 74}, {100, 99, 84, 80, 79, 78, 74, 72}, {84, 82, 75, 74, 68}, {100, 97, 90, 89, 87, 85, 84, 80, 78, 76}, {100, 98, 87, 84, 83, 75, 72}, {100, 99, 98, 91, 89, 87, 86, 85, 84, 77}, {100, 99, 91, 89, 88, 86, 84, 80, 78, 77}, {100, 98, 91, 90, 87, 86, 83, 79}, {99, 89, 87, 86, 78, 77}, {100, 99, 97, 91, 89, 88, 78}, {98, 95, 87, 86, 77}, {97, 96, 90, 89, 76}, {99, 98, 97, 96, 93, 91, 90, 89}, {98, 97, 95, 94, 89, 83}, {99, 97, 95, 94, 93, 88}, {94, 91, 88, 86}, {97, 90, 83}, {98, 96, 95, 94, 93, 92}, {97, 96, 94, 93, 89}, {95, 94, 83}, {96, 95, 93, 89}, {93, 90, 88}, {96, 93, 92}, {96, 95, 92}, {94, 88}, {93, 92}, {88}, {92}, {92}, {94}, {95}, {}, {}, {}, {}, {}, {}, {}, {}, {}];
n_opt = 600;
dur = [13, 15, 20, 21, 23, 28, 2, 3, 8, 10, 13, 14, 7, 11, 12, 14, 29, 30, 3, 7, 9, 11, 25, 27, 2, 6, 11, 15, 23, 24, 13, 17, 18, 21, 25, 27, 5, 11, 15, 16, 26, 29, 9, 10, 16, 19, 25, 27, 3, 4, 8, 10, 13, 14, 4, 14, 15, 16, 19, 21, 2, 3, 14, 17, 22, 30, 2, 7, 22, 27, 28, 29, 10, 11, 13, 23, 24, 25, 3, 10, 12, 21, 22, 29, 8, 9, 20, 26, 29, 30, 3, 4, 12, 24, 27, 28, 10, 18, 24, 27, 29, 30, 1, 23, 26, 28, 29, 30, 1, 13, 14, 16, 28, 30, 11, 13, 19, 23, 24, 30, 1, 5, 10, 16, 18, 25, 6, 7, 11, 14, 16, 21, 3, 4, 6, 12, 18, 29, 4, 5, 12, 14, 17, 30, 8, 10, 16, 18, 22, 30, 8, 14, 17, 26, 27, 28, 6, 16, 20, 22, 25, 29, 1, 5, 8, 22, 24, 30, 8, 14, 15, 19, 21, 25, 2, 7, 9, 10, 15, 27, 3, 5, 6, 17, 26, 27, 1, 2, 10, 11, 12, 24, 4, 8, 10, 15, 22, 28, 5, 7, 8, 9, 10, 17, 5, 7, 11, 14, 15, 27, 4, 5, 17, 18, 28, 29, 2, 12, 13, 15, 24, 26, 5, 9, 13, 15, 26, 27, 7, 15, 16, 17, 18, 19, 5, 14, 15, 24, 27, 28, 7, 12, 13, 14, 19, 24, 3, 8, 10, 14, 22, 23, 3, 6, 12, 15, 24, 26, 2, 4, 24, 25, 28, 29, 7, 10, 12, 13, 18, 19, 2, 10, 11, 12, 14, 21, 13, 15, 21, 23, 26, 29, 3, 11, 15, 18, 19, 25, 3, 9, 13, 17, 21, 23, 5, 6, 13, 24, 27, 30, 7, 8, 21, 23, 28, 30, 2, 10, 11, 18, 19, 22, 12, 14, 15, 18, 21, 28, 4, 5, 9, 24, 26, 29, 8, 9, 10, 11, 29, 30, 7, 16, 23, 24, 25, 27, 4, 5, 21, 26, 27, 30, 4, 18, 20, 25, 27, 29, 6, 7, 15, 16, 18, 26, 3, 13, 17, 18, 23, 25, 6, 9, 21, 22, 23, 25, 1, 5, 6, 13, 28, 29, 3, 17, 19, 23, 24, 26, 1, 6, 21, 22, 28, 30, 6, 13, 24, 25, 26, 28, 3, 5, 7, 8, 14, 23, 7, 8, 12, 25, 26, 28, 2, 11, 16, 18, 22, 28, 9, 13, 16, 17, 18, 28, 1, 5, 6, 18, 29, 30, 7, 11, 12, 13, 14, 24, 3, 8, 10, 21, 22, 25, 9, 10, 13, 28, 29, 30, 11, 17, 19, 22, 23, 25, 2, 10, 11, 14, 16, 27, 9, 10, 11, 12, 27, 30, 2, 4, 5, 6, 22, 27, 3, 4, 5, 6, 9, 29, 3, 11, 13, 15, 18, 26, 6, 9, 11, 12, 13, 18, 7, 8, 14, 18, 28, 30, 1, 6, 7, 8, 13, 20, 5, 6, 10, 14, 21, 24, 1, 4, 9, 22, 23, 24, 4, 5, 6, 10, 14, 17, 7, 10, 11, 13, 19, 26, 6, 15, 18, 19, 20, 28, 6, 7, 10, 16, 20, 21, 2, 8, 9, 17, 18, 27, 13, 14, 19, 26, 27, 28, 11, 13, 18, 19, 26, 28, 5, 7, 22, 23, 24, 25, 5, 10, 11, 14, 22, 23, 3, 9, 10, 13, 16, 30, 3, 7, 8, 15, 16, 29, 3, 4, 11, 13, 20, 23, 3, 8, 10, 12, 14, 19, 11, 12, 15, 25, 26, 30, 7, 8, 10, 22, 28, 29, 1, 6, 11, 18, 20, 27];
rreq = [|4, 4, 4, 4, 4, 4, 4, 3, 3, 2, 2, 2, 3, 2, 2, 2, 2, 2, 3, 2, 2, 2, 2, 2, 3, 2, 2, 2, 1, 1, 3, 2, 2, 2, 2, 2, 4, 3, 3, 3, 2, 2, 5, 4, 4, 4, 4, 4, 3, 3, 3, 3, 2, 2, 4, 3, 3, 3, 2, 1, 4, 3, 3, 3, 3, 3, 3, 3, 3, 2, 2, 2, 2, 2, 2, 2, 2, 2, 4, 4, 4, 3, 3, 2, 4, 4, 4, 3, 3, 3, 2, 2, 2, 2, 1, 1, 3, 3, 3, 3, 3, 3, 4, 3, 3, 3, 3, 3, 2, 2, 2, 2, 2, 2, 4, 3, 3, 3, 2, 2, 3, 3, 3, 3, 3, 3, 4, 3, 3, 3, 3, 3, 4, 4, 3, 3, 2, 1, 3, 2, 2, 2, 2, 2, 4, 3, 2, 2, 1, 1, 1, 1, 1, 1, 1, 1, 4, 3, 3, 2, 1, 1, 3, 3, 3, 3, 3, 3, 3, 2, 2, 2, 2, 2, 2, 2, 2, 2, 2, 2, 5, 3, 3, 3, 2, 1, 5, 4, 3, 3, 3, 2, 4, 4, 3, 3, 2, 1, 4, 4, 3, 3, 3, 2, 4, 4, 4, 4, 4, 4, 4, 3, 3, 3, 2, 1, 3, 3, 3, 3, 3, 3, 5, 4, 4, 4, 4, 4, 2, 2, 2, 2, 2, 2, 2, 2, 2, 1, 1, 1, 5, 4, 3, 3, 2, 2, 2, 1, 1, 1, 1, 1, 4, 3, 2, 2, 1, 1, 5, 4, 4, 4, 4, 4, 5, 4, 3, 3, 2, 2, 5, 5, 5, 5, 5, 5, 5, 4, 4, 3, 3, 3, 3, 3, 2, 2, 2, 1, 4, 4, 4, 3, 3, 2, 3, 2, 2, 1, 1, 1, 2, 2, 2, 1, 1, 1, 4, 3, 3, 3, 3, 3, 2, 1, 1, 1, 1, 1, 5, 4, 3, 3, 2, 2, 3, 2, 2, 1, 1, 1, 4, 4, 4, 3, 3, 3, 4, 4, 4, 4, 4, 4, 3, 2, 2, 2, 2, 2, 4, 4, 3, 3, 2, 2, 5, 4, 4, 3, 3, 3, 5, 4, 4, 4, 3, 3, 4, 4, 4, 3, 3, 3, 4, 3, 3, 3, 3, 3, 5, 4, 4, 3, 3, 2, 1, 1, 1, 1, 1, 1, 2, 2, 2, 2, 2, 2, 3, 3, 3, 3, 2, 2, 3, 3, 3, 3, 3, 3, 1, 1, 1, 1, 1, 1, 2, 2, 2, 2, 2, 2, 5, 4, 4, 4, 4, 4, 1, 1, 1, 1, 1, 1, 3, 3, 3, 3, 2, 2, 1, 1, 1, 1, 1, 1, 4, 4, 4, 4, 3, 3, 3, 2, 2, 1, 1, 1, 5, 4, 3, 3, 3, 2, 4, 3, 3, 2, 2, 1, 2, 1, 1, 1, 1, 1, 2, 2, 2, 2, 2, 2, 3, 3, 3, 3, 3, 3, 3, 2, 2, 2, 2, 2, 2, 2, 2, 2, 2, 2, 4, 4, 4, 4, 3, 3, 2, 1, 1, 1, 1, 1, 1, 1, 1, 1, 1, 1, 2, 2, 2, 2, 1, 1, 4, 3, 3, 2, 1, 1, 4, 3, 3, 3, 3, 3, 3, 2, 2, 2, 2, 2, 5, 4, 4, 4, 4, 4, 3, 2, 2, 2, 2, 2, 3, 3, 3, 3, 3, 3, 1, 1, 1, 1, 1, 1, 5, 4, 4, 4, 3, 3, 5, 4, 3, 3, 2, 2, 5, 5, 5, 5, 5, 5, 3, 3, 3, 2, 2, 2, 2, 2, 2, 2, 2, 2, 1, 1, 1, 1, 1, 1
 |5, 4, 4, 3, 3, 3, 4, 3, 3, 3, 2, 2, 4, 3, 3, 2, 1, 1, 1, 1, 1, 1, 1, 1, 3, 2, 2, 2, 2, 2, 1, 1, 1, 1, 1, 1, 2, 1, 1, 1, 1, 1, 3, 3, 3, 3, 2, 2, 5, 5, 5, 5, 5, 5, 1, 1, 1, 1, 1, 1, 5, 4, 4, 3, 3, 3, 3, 3, 3, 2, 1, 1, 3, 3, 3, 3, 2, 2, 1, 1, 1, 1, 1, 1, 4, 3, 3, 2, 2, 2, 2, 2, 2, 2, 2, 2, 2, 2, 2, 2, 2, 2, 1, 1, 1, 1, 1, 1, 3, 2, 2, 1, 1, 1, 1, 1, 1, 1, 1, 1, 4, 3, 3, 3, 1, 1, 3, 3, 3, 3, 2, 2, 4, 4, 4, 4, 4, 4, 1, 1, 1, 1, 1, 1, 3, 3, 3, 2, 2, 2, 5, 4, 4, 4, 3, 3, 4, 4, 4, 4, 4, 4, 2, 1, 1, 1, 1, 1, 2, 2, 2, 2, 2, 2, 3, 3, 3, 3, 3, 3, 1, 1, 1, 1, 1, 1, 2, 1, 1, 1, 1, 1, 4, 3, 3, 2, 2, 1, 4, 3, 3, 2, 1, 1, 4, 4, 3, 3, 1, 1, 4, 4, 4, 4, 4, 4, 3, 3, 2, 2, 1, 1, 3, 2, 2, 2, 2, 2, 4, 3, 3, 2, 1, 1, 3, 3, 3, 3, 3, 3, 4, 4, 3, 2, 1, 1, 5, 5, 5, 5, 5, 5, 5, 4, 3, 3, 3, 2, 4, 4, 3, 3, 2, 2, 2, 2, 2, 2, 2, 2, 3, 3, 3, 3, 3, 3, 3, 2, 2, 2, 1, 1, 3, 3, 2, 2, 2, 1, 1, 1, 1, 1, 1, 1, 4, 3, 3, 3, 3, 3, 4, 3, 3, 3, 2, 2, 4, 4, 4, 4, 4, 4, 4, 3, 3, 2, 2, 1, 4, 3, 3, 2, 2, 1, 3, 3, 3, 3, 3, 3, 5, 5, 5, 5, 5, 5, 5, 4, 4, 4, 4, 4, 2, 1, 1, 1, 1, 1, 4, 4, 4, 3, 3, 3, 4, 4, 4, 4, 4, 4, 1, 1, 1, 1, 1, 1, 3, 3, 3, 3, 3, 3, 4, 3, 3, 3, 2, 2, 5, 3, 3, 3, 2, 1, 4, 4, 4, 4, 4, 4, 2, 2, 2, 2, 2, 2, 4, 3, 3, 3, 3, 3, 3, 3, 3, 3, 2, 2, 5, 4, 3, 3, 3, 2, 2, 2, 2, 1, 1, 1, 4, 4, 4, 4, 4, 4, 2, 2, 2, 2, 2, 2, 4, 3, 3, 3, 2, 2, 4, 4, 4, 4, 4, 4, 5, 4, 4, 3, 3, 3, 4, 4, 4, 4, 4, 4, 3, 3, 3, 3, 3, 3, 3, 3, 2, 2, 1, 1, 5, 4, 4, 4, 4, 4, 5, 4, 4, 4, 3, 3, 4, 3, 2, 2, 1, 1, 4, 4, 4, 4, 4, 4, 4, 4, 4, 4, 4, 4, 2, 2, 2, 2, 2, 2, 4, 3, 3, 3, 2, 1, 3, 3, 2, 2, 1, 1, 2, 1, 1, 1, 1, 1, 4, 3, 3, 3, 3, 3, 5, 4, 4, 3, 3, 3, 4, 4, 4, 4, 3, 3, 4, 4, 4, 3, 2, 2, 4, 4, 4, 4, 3, 3, 1, 1, 1, 1, 1, 1, 4, 3, 3, 3, 1, 1, 4, 3, 3, 2, 2, 1, 2, 2, 2, 2, 2, 2, 5, 3, 3, 3, 1, 1, 4, 3, 3, 3, 3, 3, 2, 2, 2, 2, 2, 2, 5, 4, 4, 4, 4, 4
 |2, 2, 2, 1, 1, 1, 3, 3, 3, 3, 3, 3, 5, 4, 3, 3, 1, 1, 3, 3, 3, 3, 3, 3, 3, 2, 2, 2, 2, 2, 2, 2, 2, 2, 1, 1, 4, 4, 4, 4, 4, 4, 4, 4, 4, 4, 4, 4, 2, 2, 2, 2, 2, 2, 4, 3, 3, 2, 1, 1, 5, 5, 5, 5, 5, 5, 5, 4, 4, 4, 3, 3, 2, 2, 2, 2, 1, 1, 2, 1, 1, 1, 1, 1, 5, 4, 3, 3, 3, 2, 2, 1, 1, 1, 1, 1, 4, 3, 3, 2, 2, 2, 5, 4, 4, 4, 3, 3, 4, 3, 3, 2, 2, 1, 5, 4, 4, 3, 3, 3, 2, 2, 2, 2, 1, 1, 3, 3, 3, 2, 2, 2, 3, 3, 3, 2, 2, 2, 2, 2, 2, 2, 2, 2, 3, 3, 3, 3, 3, 3, 4, 3, 3, 3, 3, 3, 5, 4, 3, 3, 3, 2, 2, 2, 2, 2, 2, 2, 4, 3, 3, 2, 1, 1, 5, 4, 3, 2, 1, 1, 5, 4, 4, 4, 3, 3, 3, 3, 2, 2, 1, 1, 2, 2, 2, 2, 2, 2, 2, 2, 2, 2, 1, 1, 4, 4, 4, 4, 4, 4, 3, 3, 3, 2, 2, 2, 4, 3, 3, 3, 3, 3, 5, 5, 5, 5, 5, 5, 2, 2, 2, 2, 2, 2, 3, 3, 3, 3, 3, 3, 2, 2, 2, 2, 2, 2, 2, 2, 2, 2, 2, 2, 3, 3, 3, 2, 2, 1, 3, 3, 3, 3, 3, 3, 3, 3, 3, 3, 3, 3, 4, 3, 3, 3, 3, 3, 4, 4, 4, 4, 4, 4, 4, 4, 3, 2, 2, 1, 3, 3, 2, 2, 2, 1, 4, 4, 4, 4, 4, 4, 3, 3, 3, 2, 1, 1, 3, 3, 3, 2, 1, 1, 2, 2, 2, 2, 1, 1, 4, 3, 3, 2, 2, 1, 3, 3, 3, 3, 3, 3, 3, 3, 3, 2, 2, 2, 2, 2, 2, 2, 2, 2, 4, 3, 3, 2, 2, 2, 4, 4, 3, 3, 2, 2, 1, 1, 1, 1, 1, 1, 3, 3, 2, 2, 1, 1, 2, 2, 2, 2, 2, 2, 4, 4, 4, 4, 4, 4, 5, 4, 4, 3, 3, 3, 1, 1, 1, 1, 1, 1, 3, 2, 2, 2, 2, 2, 4, 4, 4, 3, 3, 3, 1, 1, 1, 1, 1, 1, 3, 3, 3, 2, 1, 1, 4, 3, 3, 2, 2, 2, 2, 2, 2, 2, 2, 2, 3, 3, 3, 2, 1, 1, 2, 2, 2, 2, 2, 2, 3, 3, 3, 3, 3, 3, 4, 4, 3, 3, 3, 2, 3, 3, 3, 2, 2, 1, 4, 3, 3, 2, 1, 1, 1, 1, 1, 1, 1, 1, 4, 3, 3, 3, 3, 3, 4, 3, 3, 2, 2, 1, 5, 4, 4, 3, 3, 3, 3, 3, 3, 3, 3, 3, 4, 3, 3, 3, 3, 3, 1, 1, 1, 1, 1, 1, 4, 4, 4, 4, 4, 4, 2, 2, 2, 2, 2, 2, 3, 2, 2, 1, 1, 1, 2, 2, 2, 2, 2, 2, 1, 1, 1, 1, 1, 1, 5, 4, 4, 4, 4, 4, 4, 4, 4, 4, 4, 4, 5, 4, 4, 3, 3, 2, 3, 3, 3, 2, 1, 1, 4, 4, 4, 4, 4, 4, 3, 3, 2, 2, 1, 1, 4, 4, 4, 4, 3, 3, 5, 4, 4, 4, 3, 3, 5, 3, 3, 3, 1, 1, 3, 2, 2, 2, 2, 2, 4, 3, 3, 3, 3, 3
 |1, 1, 1, 1, 1, 1, 5, 4, 3, 3, 2, 2, 1, 1, 1, 1, 1, 1, 4, 4, 4, 4, 4, 4, 1, 1, 1, 1, 1, 1, 4, 4, 4, 4, 4, 4, 3, 2, 2, 2, 1, 1, 2, 2, 2, 2, 2, 2, 2, 2, 2, 2, 2, 2, 5, 4, 4, 4, 4, 4, 2, 1, 1, 1, 1, 1, 4, 4, 4, 4, 4, 4, 2, 2, 2, 1, 1, 1, 4, 3, 3, 2, 2, 2, 4, 4, 3, 3, 3, 2, 5, 4, 4, 4, 3, 3, 4, 3, 3, 3, 3, 3, 3, 2, 2, 2, 1, 1, 2, 1, 1, 1, 1, 1, 4, 4, 4, 4, 3, 3, 1, 1, 1, 1, 1, 1, 3, 2, 2, 1, 1, 1, 3, 3, 2, 2, 1, 1, 5, 4, 4, 4, 4, 4, 4, 3, 2, 2, 1, 1, 4, 3, 3, 2, 2, 2, 5, 4, 4, 3, 2, 2, 3, 2, 2, 2, 1, 1, 3, 3, 3, 3, 3, 3, 3, 3, 3, 3, 3, 3, 4, 4, 4, 3, 3, 2, 4, 4, 4, 4, 4, 4, 3, 2, 2, 2, 2, 2, 2, 2, 2, 1, 1, 1, 2, 2, 2, 2, 2, 2, 5, 4, 4, 4, 3, 3, 2, 2, 2, 2, 1, 1, 1, 1, 1, 1, 1, 1, 5, 4, 4, 4, 4, 4, 5, 3, 3, 2, 2, 1, 2, 2, 2, 2, 2, 2, 4, 3, 3, 3, 3, 3, 2, 2, 2, 1, 1, 1, 4, 3, 3, 3, 2, 2, 5, 3, 3, 2, 1, 1, 3, 3, 3, 2, 2, 2, 2, 1, 1, 1, 1, 1, 2, 2, 2, 2, 2, 2, 2, 2, 2, 2, 1, 1, 5, 4, 4, 4, 3, 3, 5, 4, 4, 4, 4, 4, 2, 2, 2, 2, 2, 2, 5, 5, 5, 5, 5, 5, 5, 4, 3, 3, 2, 2, 3, 3, 3, 3, 3, 3, 4, 4, 4, 4, 3, 3, 3, 2, 2, 1, 1, 1, 5, 5, 5, 5, 5, 5, 1, 1, 1, 1, 1, 1, 1, 1, 1, 1, 1, 1, 5, 4, 4, 4, 4, 4, 4, 3, 3, 3, 3, 3, 2, 2, 2, 2, 2, 2, 3, 2, 2, 2, 2, 2, 5, 4, 4, 4, 4, 4, 4, 4, 4, 4, 4, 4, 4, 4, 4, 4, 4, 4, 5, 4, 4, 3, 2, 2, 4, 3, 3, 2, 2, 1, 4, 3, 3, 2, 2, 1, 5, 4, 3, 2, 1, 1, 5, 3, 3, 2, 2, 1, 2, 2, 2, 1, 1, 1, 4, 4, 4, 4, 4, 4, 4, 4, 4, 4, 4, 4, 4, 3, 3, 2, 2, 2, 1, 1, 1, 1, 1, 1, 1, 1, 1, 1, 1, 1, 5, 4, 4, 4, 4, 4, 4, 4, 3, 3, 1, 1, 4, 4, 4, 3, 2, 2, 1, 1, 1, 1, 1, 1, 5, 4, 3, 3, 2, 2, 4, 4, 4, 4, 4, 4, 4, 4, 4, 3, 3, 3, 4, 4, 4, 4, 4, 4, 5, 4, 4, 3, 3, 3, 4, 3, 3, 3, 1, 1, 3, 3, 3, 3, 3, 3, 3, 2, 2, 2, 1, 1, 2, 2, 2, 2, 2, 2, 3, 3, 3, 2, 1, 1, 3, 3, 3, 3, 3, 3, 3, 3, 2, 2, 1, 1, 3, 2, 2, 2, 1, 1, 2, 1, 1, 1, 1, 1, 3, 3, 3, 3, 3, 3, 4, 3, 3, 3, 1, 1, 4, 3, 3, 3, 3, 3, 3, 2, 2, 2, 2, 2
 |13, 11, 9, 9, 7, 3, 18, 18, 18, 18, 18, 18, 21, 20, 20, 19, 17, 17, 27, 27, 25, 21, 21, 19, 21, 21, 17, 14, 9, 9, 4, 4, 4, 4, 4, 4, 17, 16, 12, 11, 5, 5, 24, 23, 19, 17, 14, 14, 9, 8, 7, 7, 5, 5, 24, 24, 24, 24, 24, 24, 24, 19, 18, 15, 10, 8, 28, 27, 26, 25, 25, 24, 9, 8, 8, 8, 6, 6, 26, 22, 19, 17, 14, 10, 20, 19, 16, 13, 12, 10, 26, 25, 21, 20, 18, 15, 22, 17, 13, 12, 9, 6, 21, 19, 16, 15, 13, 10, 30, 23, 20, 18, 15, 12, 22, 20, 18, 16, 15, 13, 29, 26, 24, 22, 22, 19, 26, 24, 21, 19, 18, 15, 23, 20, 19, 15, 10, 8, 26, 25, 24, 23, 23, 22, 15, 12, 10, 7, 6, 4, 24, 21, 17, 11, 8, 7, 23, 21, 19, 14, 14, 11, 23, 18, 16, 8, 8, 2, 27, 26, 26, 26, 26, 26, 22, 17, 14, 12, 7, 2, 12, 10, 8, 7, 3, 1, 17, 13, 10, 10, 6, 5, 17, 15, 13, 10, 9, 5, 28, 27, 27, 26, 25, 25, 18, 17, 16, 15, 13, 13, 21, 21, 20, 20, 19, 18, 9, 9, 7, 7, 4, 3, 29, 26, 26, 22, 22, 19, 25, 24, 23, 21, 20, 19, 23, 21, 17, 16, 12, 12, 7, 6, 4, 3, 3, 1, 5, 4, 4, 3, 3, 2, 28, 25, 19, 15, 11, 8, 19, 19, 18, 15, 14, 13, 26, 25, 24, 24, 22, 22, 3, 2, 2, 2, 2, 2, 18, 14, 12, 11, 7, 7, 19, 18, 17, 17, 16, 16, 24, 24, 23, 21, 20, 19, 28, 22, 19, 12, 10, 5, 27, 25, 22, 20, 17, 16, 24, 22, 21, 20, 19, 16, 7, 7, 5, 5, 2, 1, 11, 10, 10, 9, 9, 9, 12, 9, 9, 7, 6, 4, 24, 23, 19, 15, 12, 9, 23, 16, 12, 11, 6, 4, 24, 23, 19, 17, 17, 14, 26, 26, 26, 26, 25, 25, 14, 12, 9, 6, 5, 3, 11, 11, 11, 11, 11, 11, 23, 20, 17, 15, 11, 10, 3, 3, 3, 2, 2, 2, 14, 12, 12, 12, 11, 10, 2, 2, 2, 2, 2, 2, 16, 12, 9, 9, 4, 1, 11, 10, 9, 7, 7, 5, 28, 22, 21, 19, 16, 12, 12, 11, 9, 9, 6, 4, 17, 17, 17, 16, 16, 16, 21, 18, 18, 16, 14, 12, 17, 16, 15, 14, 13, 13, 24, 17, 14, 11, 10, 6, 24, 20, 18, 14, 12, 10, 28, 22, 21, 15, 12, 9, 30, 26, 24, 23, 19, 19, 25, 20, 18, 10, 6, 6, 21, 16, 15, 11, 6, 6, 28, 28, 27, 27, 27, 26, 22, 22, 22, 22, 22, 22, 11, 9, 7, 6, 6, 4, 18, 17, 15, 12, 9, 8, 29, 26, 24, 19, 19, 16, 17, 16, 16, 14, 13, 12, 11, 11, 11, 11, 10, 10, 23, 18, 16, 11, 8, 7, 5, 5, 5, 5, 5, 5, 25, 24, 22, 19, 18, 16, 21, 18, 16, 15, 14, 13, 22, 22, 21, 19, 19, 18, 10, 9, 9, 9, 8, 8, 22, 21, 17, 16, 13, 7, 18, 16, 13, 11, 9, 8, 19, 19, 17, 16, 16, 15, 13, 12, 11, 11, 10, 10, 10, 9, 7, 4, 3, 2, 27, 27, 24, 21, 21, 18, 23, 20, 17, 13, 8, 4, 12, 11, 10, 10, 9, 9, 27, 24, 19, 19, 16, 11
 |17, 14, 10, 7, 4, 2, 21, 19, 15, 13, 11, 9, 23, 22, 21, 18, 18, 16, 17, 16, 11, 11, 8, 5, 25, 24, 23, 21, 21, 20, 17, 17, 15, 14, 12, 11, 9, 8, 7, 6, 3, 2, 17, 17, 17, 17, 17, 16, 18, 16, 13, 11, 11, 6, 22, 22, 19, 19, 16, 15, 23, 18, 18, 11, 5, 2, 15, 13, 12, 11, 11, 9, 29, 27, 24, 24, 20, 18, 10, 10, 10, 10, 10, 10, 17, 14, 12, 8, 7, 6, 24, 23, 22, 22, 20, 19, 29, 28, 28, 27, 27, 27, 21, 18, 18, 16, 14, 13, 17, 17, 17, 16, 16, 16, 22, 20, 17, 14, 14, 12, 13, 13, 12, 12, 12, 11, 21, 18, 17, 14, 11, 9, 15, 12, 11, 9, 6, 2, 19, 18, 17, 16, 15, 14, 16, 15, 13, 10, 7, 7, 26, 19, 18, 14, 10, 6, 27, 26, 25, 23, 20, 19, 20, 17, 15, 10, 9, 7, 23, 20, 17, 10, 6, 5, 7, 5, 5, 5, 3, 3, 7, 5, 4, 4, 3, 2, 27, 27, 28, 27, 27, 27, 15, 15, 15, 14, 14, 14, 28, 25, 25, 24, 21, 20, 12, 10, 8, 8, 4, 3, 9, 8, 7, 7, 6, 5, 21, 21, 20, 18, 16, 15, 26, 25, 24, 23, 19, 19, 23, 20, 20, 19, 16, 15, 20, 20, 19, 16, 16, 14, 4, 4, 4, 3, 3, 2, 20, 19, 18, 18, 17, 17, 29, 29, 29, 29, 28, 28, 12, 12, 12, 12, 12, 12, 16, 16, 16, 15, 14, 13, 22, 23, 22, 22, 21, 20, 27, 23, 23, 20, 15, 12, 30, 30, 30, 30, 30, 30, 12, 11, 12, 12, 12, 12, 25, 23, 18, 16, 15, 12, 10, 10, 10, 10, 10, 10, 23, 23, 23, 22, 22, 22, 13, 13, 11, 11, 10, 9, 30, 28, 28, 27, 25, 25, 26, 25, 24, 24, 23, 23, 18, 18, 17, 16, 15, 13, 12, 10, 9, 8, 8, 7, 24, 22, 15, 12, 7, 7, 14, 13, 12, 12, 12, 11, 28, 25, 23, 21, 20, 18, 12, 9, 9, 7, 6, 5, 27, 25, 24, 22, 20, 19, 20, 18, 13, 9, 6, 5, 28, 27, 25, 25, 24, 23, 29, 29, 28, 27, 26, 25, 16, 15, 13, 12, 11, 11, 7, 6, 5, 5, 3, 3, 10, 9, 9, 8, 7, 7, 24, 22, 21, 19, 15, 15, 27, 26, 22, 20, 17, 17, 28, 27, 26, 25, 24, 24, 24, 23, 22, 21, 21, 20, 20, 19, 19, 19, 19, 19, 26, 20, 20, 16, 10, 8, 20, 16, 12, 11, 8, 5, 17, 14, 14, 9, 8, 5, 27, 21, 18, 14, 13, 7, 20, 18, 18, 16, 14, 12, 21, 21, 17, 14, 11, 11, 17, 15, 15, 12, 9, 7, 28, 23, 22, 18, 14, 14, 25, 24, 24, 23, 21, 21, 26, 25, 25, 24, 23, 23, 24, 22, 20, 18, 16, 16, 6, 5, 4, 3, 2, 2, 11, 10, 8, 7, 6, 5, 28, 28, 25, 24, 21, 20, 12, 12, 12, 12, 12, 12, 27, 27, 27, 26, 26, 25, 29, 28, 27, 26, 26, 25, 15, 13, 12, 12, 8, 7, 12, 11, 10, 10, 9, 7, 4, 4, 4, 4, 4, 4, 22, 19, 18, 16, 15, 14, 4, 3, 3, 2, 2, 2, 25, 23, 20, 18, 17, 14, 14, 12, 12, 10, 10, 8, 10, 10, 10, 10, 10, 10, 5, 4, 4, 3, 3, 2, 28, 27, 26, 25, 25, 25|];